90
3
6
15
18
50
124
142
149
160
173
222
277
325
331
383
412
417
439
456
458
480
532
587
604
634
665
698
699
727
745
773
789
790
823
849
933
942
969
1002
1034
1086
1108
1132
1156
1168
1172
1220
1252
1281
1318
1350
1351
1359
1408
1412
1428
1437
1454
1471
1527
1532
1585
1595
1603
1608
1639
1668
1672
1679
1721
1730
1735
1745
1748
1767
1769
1813
1820
1830
1838
1855
1860
1900
1927
1944
1956
1960
1998
2016
2047
5
32
71
83
111
135
